Version identifier: 12.10.0.0 | 2019-11-26 | 843d4de
CPXPARAM_WorkMem                                 28672
Tried aggregator 2 times.
Aggregator did 45 substitutions.
Reduced MIP has 245 rows, 300 columns, and 1200 nonzeros.
Reduced MIP has 300 binaries, 0 generals, 0 SOSs, and 0 indicators.
Presolve time = 0,00 sec. (1,12 ticks)
Found incumbent of value 5100,000000 after 0,01 sec. (2,05 ticks)
Probing time = 0,00 sec. (0,47 ticks)
Tried aggregator 1 time.
Detecting symmetries...
MIP Presolve eliminated 40 rows and 0 columns.
MIP Presolve added 80 rows and 0 columns.
Reduced MIP has 285 rows, 300 columns, and 1240 nonzeros.
Reduced MIP has 300 binaries, 0 generals, 0 SOSs, and 0 indicators.
Presolve time = 0,00 sec. (1,38 ticks)
Probing time = 0,00 sec. (0,47 ticks)
Clique table members: 840.
MIP emphasis: balance optimality and feasibility.
MIP search method: dynamic search.
Parallel mode: deterministic, using up to 16 threads.
Root relaxation solution time = 0,00 sec. (1,00 ticks)

        Nodes                                         Cuts/
   Node  Left     Objective  IInf  Best Integer    Best Bound    ItCnt     Gap

*     0+    0                         5100,0000        0,0000           100,00%
*     0+    0                         2706,0000        0,0000           100,00%
      0     0     1020,0000   188     2706,0000     1020,0000      107   62,31%
      0     0     1020,0000   188     2706,0000      Cuts: 54      139   62,31%
      0     0     1020,0000   188     2706,0000     Cuts: 105      180   62,31%
      0     0     1021,4724   188     2706,0000     Cuts: 171      318   62,25%
      0     0     1026,3375   188     2706,0000     Cuts: 171      391   62,07%
      0     0     1028,0964   188     2706,0000     Cuts: 171      444   62,01%
      0     0     1028,9452   188     2706,0000     Cuts: 171      476   61,98%
      0     0     1029,0851   188     2706,0000     Cuts: 103      484   61,97%
      0     0     1029,1958   188     2706,0000      Cuts: 91      497   61,97%
*     0+    0                         2516,0000     1029,1958            59,09%
      0     2     1029,1958   300     2516,0000     1055,4184      497   58,05%
Elapsed time = 0,22 sec. (99,86 ticks, tree = 0,02 MB, solutions = 3)
   2292  1688     1852,2740   195     2516,0000     1289,2925    80911   48,76%
*  3757+ 2616                         2497,0000     1434,4441            42,55%

Performing restart 1

Repeating presolve.
Tried aggregator 1 time.
Reduced MIP has 285 rows, 300 columns, and 1240 nonzeros.
Reduced MIP has 300 binaries, 0 generals, 0 SOSs, and 0 indicators.
Presolve time = 0,00 sec. (1,16 ticks)
Tried aggregator 1 time.
Reduced MIP has 285 rows, 300 columns, and 1240 nonzeros.
Reduced MIP has 300 binaries, 0 generals, 0 SOSs, and 0 indicators.
Presolve time = 0,00 sec. (1,41 ticks)
Represolve time = 0,01 sec. (7,49 ticks)
   4494     0     1068,2253   300     2497,0000      Cuts: 21   193329   36,63%
   4494     0     1075,4925   300     2497,0000      Cuts: 10   193380   36,63%
   4494     0     1086,8648   300     2497,0000      Cuts: 13   193434   36,63%
   4494     0     1099,7153   300     2497,0000       Cuts: 9   193491   36,63%
   4494     0     1109,6864   300     2497,0000       Cuts: 9   193555   36,63%
   4494     0     1119,3511   300     2497,0000       Cuts: 8   193616   36,63%
   4494     2     1119,3511   298     2497,0000     1582,4581   193616   36,63%
   4507    15     2160,5741    96     2497,0000     1582,4581   196294   36,63%
   5703   755     2337,0698   129     2497,0000     1582,4581   241288   36,63%
   6566  1301     1675,5163   270     2497,0000     1582,4581   279437   36,63%
   8466  2769     2374,6886   156     2497,0000     1582,4581   333892   36,63%
  10217  4576     2011,6846   240     2497,0000     1582,4581   397976   36,63%

Performing restart 2

Repeating presolve.
Tried aggregator 1 time.
Reduced MIP has 285 rows, 300 columns, and 1240 nonzeros.
Reduced MIP has 300 binaries, 0 generals, 0 SOSs, and 0 indicators.
Presolve time = 0,00 sec. (1,16 ticks)
Tried aggregator 1 time.
Reduced MIP has 285 rows, 300 columns, and 1240 nonzeros.
Reduced MIP has 300 binaries, 0 generals, 0 SOSs, and 0 indicators.
Presolve time = 0,00 sec. (1,41 ticks)
Represolve time = 0,04 sec. (17,84 ticks)
  10370     0     1136,7231   300     2497,0000       Cuts: 4   414258   36,63%
  10370     0     1136,9473   300     2497,0000       Cuts: 3   414274   36,63%
  10370     0     1137,1539   300     2497,0000       Cuts: 2   414300   36,63%
  10370     0     1137,7027   300     2497,0000       Cuts: 2   414320   36,63%
  10370     0     1142,6748   300     2497,0000       Cuts: 4   414370   36,63%
  10370     0     1145,8056   300     2497,0000       Cuts: 7   414444   36,63%
  10370     0     1147,0396   300     2497,0000       Cuts: 6   414502   36,63%
  10370     0     1151,6270   300     2497,0000       Cuts: 7   414592   36,63%
  10370     2     1151,6270   299     2497,0000     1582,4581   414592   36,63%
* 12106+ 1090                         2475,0000     1582,4581            36,06%
  12483  1233     2221,6557   141     2475,0000     1582,4581   468645   36,06%
  18604  5448     2115,9832   174     2475,0000     1902,7707   766913   23,12%
Elapsed time = 4,68 sec. (3809,75 ticks, tree = 14,74 MB, solutions = 5)
  25997  9546     2299,4741   180     2475,0000     2036,8841  1046737   17,70%
  32941 12125     2409,5974    95     2475,0000     2112,2067  1312128   14,66%
  40256 13889     2460,1339   129     2475,0000     2180,2961  1599549   11,91%
  47542 14045        cutoff           2475,0000     2234,7965  1850778    9,71%
  55197 12347        cutoff           2475,0000     2301,1474  2144450    7,02%
  64141  6668        cutoff           2475,0000     2390,3367  2396367    3,42%

Clique cuts applied:  62
Cover cuts applied:  638
Flow cuts applied:  5
Mixed integer rounding cuts applied:  81
Zero-half cuts applied:  27
Lift and project cuts applied:  10
Gomory fractional cuts applied:  31

Root node processing (before b&c):
  Real time             =    0,22 sec. (99,53 ticks)
Parallel b&c, 16 threads:
  Real time             =   12,59 sec. (9842,33 ticks)
  Sync time (average)   =    3,29 sec.
  Wait time (average)   =    0,01 sec.
                          ------------
Total (root+branch&cut) =   12,81 sec. (9941,86 ticks)
